+
+
+
+
+
+
25
+
80
+
+
66
+
58
11
+
94
+
0
96
+
+
+
90
34
+
+
60
44
56
+
2
+
+
64
59
+
55
+
+
53
70
5
+
+
+
26
+
74
+
14
+
45
8
+
+
+
4
+
38
12
+
76
68
+
40
17
+
+
+
24
+
39
+
+
71
65
48
+
67
+
+
+
+
52
83
+
73
+
1
+
41
81
+
13
7
+
3
+
42
+
+
85
22
+
20
89
+
+
+
+
+
+
+
31
15
86
92
37
+
9
69
+
93
18
+
91
78
+
+
79
51
98
+
16
+
+
+
29
95
33
+
+
82
+
28
+
84
47
+
46
+
57
35
+
+
+
+
+
72
97
+
43
+
50
23
+
+
30
27
+
88
+
77
+
99
61
+
+
32
+
62
36
+
19
10
+
+
+
87
21
63
+
75
+
49
+
6
54
